param n := 25;
param s := 3;
param t := 1;
set A :=
2 15 
2 22 
3 22 
4 10 
4 22 
4 23 
5 4 
5 6 
5 18 
5 22 
5 23 
6 9 
6 17 
6 24 
7 8 
7 13 
7 22 
8 11 
8 12 
8 17 
8 19 
9 13 
9 15 
9 17 
9 23 
10 6 
10 12 
10 13 
10 14 
10 16 
10 17 
10 25 
11 2 
11 16 
11 19 
11 23 
12 7 
12 9 
12 10 
12 17 
12 19 
12 21 
15 2 
15 14 
15 16 
15 17 
16 6 
16 14 
16 25 
17 8 
17 19 
17 24 
18 6 
18 9 
18 10 
18 16 
19 1 
20 2 
20 7 
20 23 
21 8 
21 15 
21 20 
22 9 
22 11 
22 14 
22 18 
22 24 
23 5 
23 6 
23 11 
23 25 
24 5 
24 18 
24 21 
24 23 
25 8 
25 17 
25 20 
;
param: capacity:=
2 15 7.5 
2 22 9.9 
3 22 6.2 
4 10 8.5 
4 22 9.3 
4 23 9.9 
5 4 4.6 
5 6 3.9 
5 18 3.7 
5 22 5.5 
5 23 9.0 
6 9 6.0 
6 17 8.7 
6 24 5.2 
7 8 9.2 
7 13 4.1 
7 22 8.0 
8 11 7.6 
8 12 3.9 
8 17 6.6 
8 19 9.5 
9 13 6.0 
9 15 8.7 
9 17 8.5 
9 23 4.3 
10 6 5.8 
10 12 8.1 
10 13 8.9 
10 14 5.2 
10 16 8.0 
10 17 3.3 
10 25 4.9 
11 2 3.3 
11 16 3.6 
11 19 3.9 
11 23 4.9 
12 7 5.9 
12 9 8.8 
12 10 10.0 
12 17 9.9 
12 19 5.2 
12 21 3.5 
15 2 9.4 
15 14 9.6 
15 16 6.6 
15 17 5.0 
16 6 5.7 
16 14 3.8 
16 25 6.3 
17 8 3.9 
17 19 9.3 
17 24 8.2 
18 6 6.0 
18 9 4.6 
18 10 5.2 
18 16 5.3 
19 1 3.8 
20 2 4.7 
20 7 3.6 
20 23 5.7 
21 8 6.0 
21 15 8.2 
21 20 8.4 
22 9 8.4 
22 11 9.1 
22 14 4.8 
22 18 7.8 
22 24 7.1 
23 5 9.4 
23 6 8.3 
23 11 7.8 
23 25 8.5 
24 5 5.0 
24 18 4.4 
24 21 9.6 
24 23 3.9 
25 8 4.8 
25 17 3.8 
25 20 3.5 
;
param: cost:=
2 15 7.8 
2 22 9.4 
3 22 4.6 
4 10 2.8 
4 22 8.0 
4 23 9.2 
5 4 8.5 
5 6 9.2 
5 18 1.8 
5 22 8.9 
5 23 4.1 
6 9 6.0 
6 17 9.4 
6 24 4.9 
7 8 4.7 
7 13 9.4 
7 22 4.6 
8 11 1.6 
8 12 6.5 
8 17 1.7 
8 19 2.6 
9 13 3.6 
9 15 3.9 
9 17 1.4 
9 23 7.3 
10 6 4.8 
10 12 3.5 
10 13 6.9 
10 14 8.4 
10 16 7.4 
10 17 4.7 
10 25 5.0 
11 2 9.4 
11 16 2.3 
11 19 5.7 
11 23 1.2 
12 7 7.7 
12 9 1.4 
12 10 7.2 
12 17 9.5 
12 19 6.6 
12 21 4.7 
15 2 8.3 
15 14 1.4 
15 16 5.2 
15 17 9.3 
16 6 1.4 
16 14 7.9 
16 25 5.5 
17 8 3.0 
17 19 9.3 
17 24 3.6 
18 6 1.5 
18 9 7.7 
18 10 9.4 
18 16 2.2 
19 1 4.9 
20 2 3.8 
20 7 9.9 
20 23 7.7 
21 8 1.5 
21 15 6.0 
21 20 5.5 
22 9 4.1 
22 11 1.7 
22 14 6.4 
22 18 5.8 
22 24 3.9 
23 5 1.6 
23 6 2.2 
23 11 1.7 
23 25 2.7 
24 5 4.0 
24 18 4.0 
24 21 5.5 
24 23 4.3 
25 8 7.6 
25 17 2.4 
25 20 8.6 
;